&CONTROL
  calculation = 'bands'
  restart_mode = 'from_scratch'
  etot_conv_thr =   1e-5
  forc_conv_thr =  	1e-4
  outdir = './outs'
  prefix = 'v2c'
  pseudo_dir = './'
  tprnfor = .true.
  verbosity = 'high'
/
&SYSTEM
  degauss =   1.4699723600d-02
  ecutrho =   3.2000000000d+02
  ecutwfc =   4.0000000000d+01
  nbnd=30
  ibrav = 0
  nat = 3
  nosym = .false.
  ntyp = 2
/
&ELECTRONS
  conv_thr =   6.0000000000d-10
  electron_maxstep = 80
  mixing_beta =   4.0000000000d-01
/
&IONS
/
&CELL
cell_dofree='ibrav'
/
ATOMIC_SPECIES
C      12.0107 C.pbe-n-kjpaw_psl.1.0.0.UPF
V      50.9415 v_pbe_v1.4.uspp.F.UPF
ATOMIC_POSITIONS crystal
V            0.3333333333       0.6666666667       0.2551684700 
V            0.6666666667       0.3333333333       0.7448315300 
C            0.0000000000       0.0000000000       0.0000000000 
K_POINTS crystal_b
5
  0.0000 0.5000 0.0000 20 !L
  0.0000 0.0000 0.0000 30 !Gamma
  -0.500 0.0000 -0.500 10 !X
  -0.375 0.2500 -0.375 30 !U
  0.0000 0.0000 0.0000 20 !Gamma
CELL_PARAMETERS angstrom
     -1.4412561150      -2.4963288179      -0.0000000000
     -1.4412561150       2.4963288179       0.0000000000
      0.0000000000       0.0000000000      -4.5010760100