&bands
	outdir='./outs/'
	prefix = 'v2c'
	filband = 'v2c_bands.dat'
/
