&projwfc
	prefix='v2c'
	outdir='./outdir/'
	filpdos='v2c.pdos.dat'
/
